; benchmark generated from python API
(set-info :status unknown)
(declare-datatypes ((RealState 0)) (((RMk1 (rval1 Real)) (RMk2 (rval2 Real)))))
 (assert
 (forall ((|v11:0| Real) )(exists ((|v10:1_st| RealState) (val!2142 Real) )(forall ((|v9:2| Real) )(exists ((|v8:3_st| RealState) (val!2143 Real) )(forall ((|v7:4| Real) )(exists ((|v6:5_st| RealState) (val!2144 Real) )(forall ((|v5:6| Real) )(exists ((|v4:7_st| RealState) (val!2145 Real) )(forall ((|v3:8| Real) )(exists ((|v2:9_st| RealState) (val!2146 Real) )(forall ((|v1:10| Real) )(exists ((|v0:11_st| RealState) (val!2147 Real) )(let ((?x2714 (- 20.0)))
 (let ((?x459 (+ (+ (+ (* (- 12.0) |v3:8|) (* 15.0 (rval2 |v10:1_st|))) (* 4.0 |v1:10|)) (* (- 15.0) |v7:4|))))
 (let ((?x2092 (- 17.0)))
 (let ((?x591 (rval2 |v8:3_st|)))
 (let ((?x159 (* 8.0 ?x591)))
 (let ((?x2896 (+ (+ (+ (* 19.0 |v7:4|) (* (- 14.0) |v3:8|)) (* 7.0 (rval2 |v0:11_st|))) ?x159)))
 (let ((?x1991 (- 19.0)))
 (let ((?x754 (+ (+ (* (- 15.0) (rval2 |v4:7_st|)) (* 20.0 (rval2 |v10:1_st|))) (* 12.0 (rval2 |v10:1_st|)))))
 (let ((?x293 (+ (+ (+ (* 15.0 |v9:2|) (* 19.0 |v7:4|)) (* (- 13.0) (rval2 |v4:7_st|))) (* 16.0 (rval2 |v0:11_st|)))))
 (let (($x2133 (and (and (<= ?x293 19.0) (<= (+ ?x754 (* (- 10.0) |v7:4|)) ?x1991)) (or (<= ?x2896 ?x2092) (<= ?x459 ?x2714)))))
 (let ((?x2583 (+ (+ (+ (* 16.0 |v3:8|) (* ?x2092 (rval2 |v0:11_st|))) (* 10.0 |v1:10|)) (* 10.0 (rval2 |v0:11_st|)))))
 (let ((?x1891 (* 4.0 |v7:4|)))
 (let ((?x2877 (rval2 |v2:9_st|)))
 (let ((?x539 (* ?x2714 ?x2877)))
 (let (($x737 (<= (+ (+ (+ (* (- 3.0) |v11:0|) (* (- 8.0) |v7:4|)) ?x539) ?x1891) 17.0)))
 (let ((?x1852 (- 1.0)))
 (let ((?x2522 (* ?x1852 |v1:10|)))
 (let ((?x2128 (+ (+ (+ (* ?x2092 |v1:10|) (* 15.0 |v9:2|)) (* 2.0 (rval2 |v4:7_st|))) ?x2522)))
 (let ((?x2859 (rval2 |v10:1_st|)))
 (let ((?x517 (+ (+ (+ (* 19.0 |v7:4|) (* (- 11.0) (rval2 |v4:7_st|))) (* 10.0 |v11:0|)) ?x2859)))
 (let (($x463 (or (or (<= ?x517 16.0) (<= ?x2128 ?x1991)) (and $x737 (<= ?x2583 6.0)))))
 (let ((?x1762 (- 10.0)))
 (let ((?x1646 (+ (+ (+ (* ?x1991 |v5:6|) (* 10.0 |v11:0|)) (* (- 2.0) (rval2 |v4:7_st|))) (* (- 11.0) |v11:0|))))
 (let ((?x957 (- 13.0)))
 (let ((?x2856 (* 19.0 ?x2877)))
 (let (($x1635 (<= (+ (+ (+ (* 3.0 ?x591) (* 11.0 |v9:2|)) (* 3.0 |v3:8|)) ?x2856) ?x957)))
 (let ((?x2047 (+ (+ (+ ?x2859 (* ?x2092 (rval2 |v0:11_st|))) (* (- 9.0) |v1:10|)) (* (- 6.0) ?x2877))))
 (let ((?x1968 (- 15.0)))
 (let ((?x1699 (+ (+ (+ (* 0.0 ?x591) (* (- 14.0) |v3:8|)) |v3:8|) (* (- 7.0) ?x591))))
 (let ((?x632 (+ (+ (+ (* 15.0 ?x591) (* 14.0 (rval2 |v0:11_st|))) (* 10.0 |v11:0|)) (* (- 18.0) ?x2859))))
 (let ((?x437 (rval2 |v0:11_st|)))
 (let ((?x705 (* 2.0 ?x437)))
 (let (($x1766 (<= (+ (+ (+ (* ?x957 ?x591) (* (- 5.0) ?x2877)) (* ?x1762 |v5:6|)) ?x705) 1.0)))
 (let ((?x2101 (+ (+ (+ (* 12.0 |v11:0|) (* 13.0 ?x591)) (* ?x2714 |v1:10|)) (* 18.0 |v11:0|))))
 (let ((?x1513 (- 16.0)))
 (let ((?x1013 (+ (+ (+ (* ?x957 |v5:6|) (* (- 6.0) (rval2 |v6:5_st|))) (* 14.0 |v7:4|)) (* (- 7.0) |v7:4|))))
 (let (($x1128 (or (or (or (<= ?x1013 ?x1513) (<= ?x2101 ?x1762)) (or $x1766 (<= ?x632 11.0))) (or (or (<= ?x1699 ?x1968) (<= ?x2047 13.0)) (or $x1635 (<= ?x1646 ?x1762))))))
 (let ((?x2727 (+ (+ (+ (* 15.0 |v3:8|) (* 9.0 |v5:6|)) (* 13.0 |v3:8|)) (* (- 3.0) |v1:10|))))
 (let (($x1071 (<= (+ (+ (+ ?x705 (* (- 6.0) |v1:10|)) (* ?x1852 |v5:6|)) (* ?x1513 ?x437)) ?x1762)))
 (let ((?x1687 (* 3.0 |v5:6|)))
 (let ((?x2837 (+ (+ (+ (* 13.0 |v1:10|) (* 13.0 (rval2 |v4:7_st|))) (* (- 3.0) ?x2859)) ?x1687)))
 (let ((?x1429 (+ (+ (+ (* 8.0 |v7:4|) (* (- 2.0) (rval2 |v6:5_st|))) (* 13.0 ?x437)) (* ?x957 ?x437))))
 (let (($x2282 (or (and (<= ?x1429 ?x1762) (<= ?x2837 1.0)) (and $x1071 (<= ?x2727 5.0)))))
 (let ((?x314 (rval2 |v4:7_st|)))
 (let ((?x3000 (* 2.0 ?x314)))
 (let ((?x1152 (+ (+ (* 5.0 |v9:2|) (* (- 12.0) |v5:6|)) (* (- 11.0) (rval2 |v6:5_st|)))))
 (let ((?x1667 (* 5.0 |v3:8|)))
 (let (($x2650 (<= (+ (+ (+ (* 13.0 |v5:6|) (* (- 9.0) |v1:10|)) (rval2 |v6:5_st|)) ?x1667) 15.0)))
 (let ((?x2069 (- 18.0)))
 (let (($x760 (<= (+ (+ (+ (* 11.0 ?x2877) ?x314) (* (- 12.0) |v5:6|)) ?x539) ?x2069)))
 (let ((?x302 (+ (+ (+ (* ?x2714 |v11:0|) (* ?x2714 (rval2 |v6:5_st|))) (* ?x1991 ?x2859)) (* 19.0 ?x2859))))
 (let (($x498 (or (or (<= ?x302 1.0) $x760) (and $x2650 (<= (+ ?x1152 ?x3000) 18.0)))))
 (let ((?x2505 (* 10.0 ?x2877)))
 (let (($x2750 (<= (+ (+ (+ (* ?x1968 |v3:8|) (* 18.0 ?x2877)) (* 18.0 ?x2877)) ?x2505) 8.0)))
 (let ((?x939 (+ (+ (* (- 2.0) (rval2 |v6:5_st|)) (* (- 8.0) ?x591)) (* 2.0 ?x591))))
 (let ((?x1917 (- 5.0)))
 (let ((?x1996 (* 17.0 |v11:0|)))
 (let (($x2189 (<= (+ (+ (+ (* 13.0 ?x314) (* (- 9.0) |v5:6|)) (* ?x1991 ?x437)) ?x1996) ?x1917)))
 (let ((?x310 (* 19.0 |v5:6|)))
 (let (($x1044 (<= (+ (+ (+ (* (- 4.0) |v9:2|) (* ?x1968 ?x314)) (* 15.0 |v5:6|)) ?x310) 12.0)))
 (let ((?x2020 (+ (+ (+ ?x2522 (* (- 4.0) ?x314)) (* 10.0 |v9:2|)) (* (- 9.0) ?x314))))
 (let ((?x3025 (+ (+ (+ (* 8.0 |v1:10|) (* ?x1991 |v1:10|)) (* (- 2.0) |v3:8|)) (* 20.0 |v9:2|))))
 (let ((?x2541 (+ (+ (* (- 12.0) ?x2877) (* 4.0 (rval2 |v6:5_st|))) (* (- 14.0) |v1:10|))))
 (let (($x2633 (and (and (<= (+ ?x2541 |v1:10|) ?x1852) (<= ?x3025 3.0)) (or (<= ?x2020 2.0) $x1044))))
 (let (($x2744 (and (or $x2633 (or (or $x2189 (<= (+ ?x939 (* 7.0 |v9:2|)) 13.0)) $x2750)) (or $x498 $x2282))))
 (let ((?x2783 (- 4.0)))
 (let ((?x1436 (* 4.0 |v9:2|)))
 (let ((?x1378 (+ (+ (+ (* (- 7.0) |v3:8|) (* (- 3.0) |v5:6|)) (* ?x2069 |v1:10|)) ?x1436)))
 (let (($x626 (<= (+ (+ (+ (* 12.0 |v9:2|) (* ?x1762 |v3:8|)) ?x1667) (* 15.0 |v3:8|)) 13.0)))
 (let ((?x1015 (* 12.0 ?x437)))
 (let (($x1092 (<= (+ (+ (+ (* ?x2069 |v7:4|) (* 19.0 |v9:2|)) (* ?x1762 ?x2859)) ?x1015) 19.0)))
 (let (($x2446 (<= (+ (+ (+ (* (- 6.0) |v9:2|) (* 10.0 |v1:10|)) ?x437) (* ?x2069 ?x591)) 11.0)))
 (let ((?x2232 (+ (+ (+ (* ?x2783 ?x2877) (* 16.0 |v9:2|)) (* 20.0 |v7:4|)) (* ?x1991 |v11:0|))))
 (let (($x3094 (and (<= ?x2232 16.0) (and (and $x2446 $x1092) (or $x626 (<= ?x1378 ?x2783))))))
 (let ((?x2619 (+ (+ (+ (* 5.0 |v7:4|) (* 5.0 ?x437)) (* (- 6.0) ?x437)) (* ?x2783 |v11:0|))))
 (let (($x2450 (<= (+ (+ (+ ?x159 (* 15.0 |v9:2|)) (* 19.0 |v7:4|)) (* 5.0 |v5:6|)) ?x1513)))
 (let ((?x2763 (* 17.0 |v7:4|)))
 (let (($x975 (<= (+ (+ (+ (* ?x1968 |v3:8|) (* (- 11.0) |v9:2|)) (* 2.0 ?x2877)) ?x2763) 19.0)))
 (let ((?x2457 (- 9.0)))
 (let (($x1517 (<= (+ (+ (+ (* 8.0 ?x314) ?x1667) (* ?x1917 |v1:10|)) (* 0.0 |v5:6|)) ?x2457)))
 (let ((?x2597 (* 13.0 |v3:8|)))
 (let ((?x856 (+ (+ (+ (* 12.0 (rval2 |v6:5_st|)) (* 9.0 ?x2877)) (* 13.0 |v11:0|)) ?x2597)))
 (let (($x1677 (<= (+ (+ (+ ?x2505 (* ?x2714 |v9:2|)) (* 10.0 |v11:0|)) (* 4.0 |v5:6|)) 18.0)))
 (let (($x2441 (<= (+ (+ (+ (* ?x1968 ?x437) (* ?x2714 ?x437)) ?x2856) (* ?x1852 ?x437)) 2.0)))
 (let ((?x173 (- 3.0)))
 (let ((?x2249 (+ (+ (+ (* (- 14.0) ?x591) (* 14.0 |v5:6|)) (* ?x2069 ?x314)) (* ?x1917 |v5:6|))))
 (let (($x819 (or (and (or (<= ?x2249 ?x173) $x2441) (and $x1677 (<= ?x856 1.0))) (and (and $x1517 $x975) (or $x2450 (<= ?x2619 16.0))))))
 (let ((?x582 (+ (+ (+ (* 18.0 |v9:2|) (* 15.0 ?x437)) (* 18.0 ?x591)) (* (- 11.0) ?x2859))))
 (let ((?x1163 (* ?x957 |v5:6|)))
 (let (($x1944 (<= (+ (+ (+ (* ?x2069 ?x437) (* ?x957 |v1:10|)) (* 5.0 |v11:0|)) ?x1163) 4.0)))
 (let ((?x2860 (+ (+ (+ (* ?x2069 ?x591) (* ?x1762 (rval2 |v6:5_st|))) (* 15.0 |v7:4|)) ?x539)))
 (let ((?x1850 (* 8.0 |v3:8|)))
 (let (($x2098 (<= (+ (+ (+ (* 12.0 ?x314) (* ?x1852 ?x591)) (* ?x2069 |v5:6|)) ?x1850) 16.0)))
 (let ((?x1069 (+ (+ (* (- 8.0) (rval2 |v6:5_st|)) (* ?x2092 (rval2 |v6:5_st|))) (* ?x1968 |v1:10|))))
 (let (($x1884 (or (and (<= (+ ?x1069 (* 16.0 ?x2877)) 19.0) $x2098) (or (<= ?x2860 ?x1762) $x1944))))
 (let ((?x1248 (* 13.0 ?x437)))
 (let ((?x2291 (+ (+ (+ (* 10.0 |v7:4|) (* 3.0 |v1:10|)) (* 6.0 (rval2 |v6:5_st|))) ?x1248)))
 (let ((?x187 (- 11.0)))
 (let (($x264 (<= (+ (+ (+ (* ?x1968 |v5:6|) (* ?x2714 ?x2859)) ?x310) (* ?x2092 |v3:8|)) ?x187)))
 (let ((?x1225 (+ (+ (+ (* 10.0 |v9:2|) (* 4.0 ?x314)) (* (- 7.0) (rval2 |v6:5_st|))) (* ?x2783 ?x591))))
 (let ((?x2046 (* 15.0 |v5:6|)))
 (let (($x2265 (<= (+ (+ (+ (* 9.0 |v5:6|) (* (- 6.0) |v5:6|)) (* ?x1513 ?x2877)) ?x2046) 5.0)))
 (let (($x1121 (or (and (and $x2265 (<= ?x1225 2.0)) (or $x264 (<= ?x2291 17.0))) $x1884)))
 (let (($x1405 (and (or (or $x1121 (<= ?x582 17.0)) (and $x819 $x3094)) (and $x2744 (and $x1128 (or $x463 $x2133))))))
 (let (($x1423 (not (= |v0:11_st| (RMk1 val!2147)))))
 (let (($x937 (not (= |v2:9_st| (RMk1 val!2146)))))
 (let (($x1277 (not (= |v4:7_st| (RMk1 val!2145)))))
 (let (($x1151 (not (= |v6:5_st| (RMk1 val!2144)))))
 (let (($x1011 (not (= |v8:3_st| (RMk1 val!2143)))))
 (let (($x439 (not (= |v10:1_st| (RMk1 val!2142)))))
 (and $x439 $x1011 $x1151 $x1277 $x937 $x1423 $x1405))))))))))))))))))))))))))))))))))))))))))))))))))))))))))))))))))))))))))))))))))))))))))))))))))))))))))))))))
 )
 )
 )
 )
 )
 )
 )
 )
 )
 )
 )
 )
(check-sat)
